Route #1: 194 41 198 4 68 114 120 61 66 10 172 129 92 156 35 106 55 70 111
Route #2: 153 74 9 145 176 34 14 166 21 140 88 109 131 150 173 80 199 130 177 29
Route #3: 36 91 104 77 64 146 123 102 78 1 90 191 107 59 60 133 49 124 33 23 100 147 115 192
Route #4: 118 148 39 76 51 27 196 135 98 46 83 2 116 89 54 52 57 95 58
Route #5: 112 25 175 30 44 65 81 67 163 8 97 169 31 82 3 117 69 40 38 5 32 200 26 108 13 113
Route #6: 152 165 53 134 179 167 127 139 128 185 190 73 132 56 143 110 15 160
Route #7: 162 43 158 79 17 86 126 96 122 19 159 144 11 62 178
Route #8: 24 84 138 85 149 141 42 170 164 171 193 155 181 157 189 20
Route #9: 45 183 71 63 72 16 87 37 187 12 182 180 197 142 184 174 47
Route #10: 151 22 136 103 137 48 188 93 7 161 195 6
Route #11: 28 121 168 99 125 18 154 101 75 186 105 119 50 94
Cost 146875
Time 350.922
